VER
1

OBJSENSE
MIN

PSDVAR
1
3

VAR
3 1
Q 3

CON
2 1
L= 2

OBJFCOORD
5
0 0 0 2e+0
0 1 0 1e+0
0 1 1 2e+0
0 2 1 1e+0
0 2 2 2e+0

OBJACOORD
1
0 1e+0

FCOORD
9
0 0 0 0 1e+0
0 0 1 1 1e+0
0 0 2 2 1e+0
1 0 0 0 1e+0
1 0 1 0 1e+0
1 0 2 0 1e+0
1 0 1 1 1e+0
1 0 2 1 1e+0
1 0 2 2 1e+0

ACOORD
3
0 0 1e+0
1 1 1e+0
1 2 1e+0

BCOORD
2
0 -1e+0
1 -5e-1

